certificates/rado_a7_c208_N30.cnf
c Rad2 upper bound instance: x1 + 7*x2 - x3 = 208, interval [1,30]
p cnf 30 172
1 3 30 0
-1 -3 -30 0
2 4 30 0
-2 -4 -30 0
3 5 30 0
-3 -5 -30 0
4 6 30 0
-4 -6 -30 0
5 7 30 0
-5 -7 -30 0
1 6 29 0
-1 -6 -29 0
6 8 30 0
-6 -8 -30 0
2 7 29 0
-2 -7 -29 0
7 9 30 0
-7 -9 -30 0
3 8 29 0
-3 -8 -29 0
8 10 30 0
-8 -10 -30 0
4 9 29 0
-4 -9 -29 0
9 11 30 0
-9 -11 -30 0
5 10 29 0
-5 -10 -29 0
10 12 30 0
-10 -12 -30 0
6 11 29 0
-6 -11 -29 0
11 13 30 0
-11 -13 -30 0
7 12 29 0
-7 -12 -29 0
12 14 30 0
-12 -14 -30 0
1 13 28 0
-1 -13 -28 0
8 13 29 0
-8 -13 -29 0
13 15 30 0
-13 -15 -30 0
2 14 28 0
-2 -14 -28 0
9 14 29 0
-9 -14 -29 0
14 16 30 0
-14 -16 -30 0
3 15 28 0
-3 -15 -28 0
10 15 29 0
-10 -15 -29 0
15 17 30 0
-15 -17 -30 0
4 16 28 0
-4 -16 -28 0
11 16 29 0
-11 -16 -29 0
16 18 30 0
-16 -18 -30 0
5 17 28 0
-5 -17 -28 0
12 17 29 0
-12 -17 -29 0
17 19 30 0
-17 -19 -30 0
6 18 28 0
-6 -18 -28 0
13 18 29 0
-13 -18 -29 0
18 20 30 0
-18 -20 -30 0
7 19 28 0
-7 -19 -28 0
14 19 29 0
-14 -19 -29 0
19 21 30 0
-19 -21 -30 0
1 20 27 0
-1 -20 -27 0
8 20 28 0
-8 -20 -28 0
15 20 29 0
-15 -20 -29 0
20 22 30 0
-20 -22 -30 0
2 21 27 0
-2 -21 -27 0
9 21 28 0
-9 -21 -28 0
16 21 29 0
-16 -21 -29 0
21 23 30 0
-21 -23 -30 0
3 22 27 0
-3 -22 -27 0
10 22 28 0
-10 -22 -28 0
17 22 29 0
-17 -22 -29 0
22 24 30 0
-22 -24 -30 0
4 23 27 0
-4 -23 -27 0
11 23 28 0
-11 -23 -28 0
18 23 29 0
-18 -23 -29 0
23 25 30 0
-23 -25 -30 0
5 24 27 0
-5 -24 -27 0
12 24 28 0
-12 -24 -28 0
19 24 29 0
-19 -24 -29 0
24 26 30 0
-24 -26 -30 0
6 25 27 0
-6 -25 -27 0
13 25 28 0
-13 -25 -28 0
20 25 29 0
-20 -25 -29 0
25 27 30 0
-25 -27 -30 0
7 26 27 0
-7 -26 -27 0
14 26 28 0
-14 -26 -28 0
21 26 29 0
-21 -26 -29 0
26 28 30 0
-26 -28 -30 0
1 26 27 0
-1 -26 -27 0
8 27 0
-8 -27 0
15 27 28 0
-15 -27 -28 0
22 27 29 0
-22 -27 -29 0
27 29 30 0
-27 -29 -30 0
2 26 28 0
-2 -26 -28 0
9 27 28 0
-9 -27 -28 0
16 28 0
-16 -28 0
23 28 29 0
-23 -28 -29 0
28 30 0
-28 -30 0
3 26 29 0
-3 -26 -29 0
10 27 29 0
-10 -27 -29 0
17 28 29 0
-17 -28 -29 0
24 29 0
-24 -29 0
4 26 30 0
-4 -26 -30 0
11 27 30 0
-11 -27 -30 0
18 28 30 0
-18 -28 -30 0
25 29 30 0
-25 -29 -30 0
