certificates/rado_a7_c208_N30.drat
-30 0
28 0
-16 0
14 0
18 0
-2 0
-26 0
-6 0
4 0
24 0
8 0
-12 0
-29 0
-20 0
-27 0
10 0
7 0
17 0
0
